6794 9131
16967 7413
43329 17635
980 1577
1214 12912
33495 18879
7755 5659
9270 17605
62129 43659
59855 655
25319 55586
1571 4146
25210 59051
64756 1061
2889 3147
63849 17908
1790 31497
64947 29336
12128 4405
60461 59625
61800 33911
9238 16576
52738 14057
14556 59938
27470 13985
65206 21191
17937 6191
3193 41805
52839 39773
29420 52792
48574 10576
59847 14712
26104 51256
22800 54785
12182 23143
51902 57298
54671 49803
17599 7622
54496 36393
34544 29861
59808 8687
24699 30645
8243 28299
50953 10997
20466 43485
21299 14576
46946 24674
25532 36829
35477 41109
62805 39947
24867 48854
12098 54383
40643 31910
27445 62039
32743 51753
32477 55155
22089 55227
45546 31788
41342 49392
18132 44664
62632 48733
14439 64040
43801 8634
41507 39122
